; --------------------------------------------------------------------------
; File     : KGC808-1.smt2
; Domain   : ODRL Policy / KB Grounding Concept-valued
; Axioms   : Proposition 1: denotation growth under disjointness addition with c_haspart [GeoNames]
; Version  : 1.0
; Authors  : 
; Refs     : [Mus+26b] Mustafa, D., Collarana, D., Lange, C., Peng, Y., Haque, R., Quix, C., Decker, S. Denotational Semantics for ODRL: Knowledge-Based Constraint Conflict Detection. 2026. arXiv:2602.19883. https://arxiv.org/abs/2602.19883
; Source   : Mustafa, D. (2026)
; Names    : KGC808-1.smt2
; Status   : unsat
; Verdict  : MonotonicityDenotation
; Comments : Verdict: MonotonicityDenotation  Category: Monotonicity  Difficulty: Hard
; --------------------------------------------------------------------------

(set-logic UF)
; KGC808 SMT cross-check: denotation growth for c_haspart under
; disjointness addition (contravariant variable position).
; ============================================================
; Single-sort `Concept`. Membership in R and R' tracked by
; in_concepts_R/1 and in_concepts_R_prime/1.
; ============================================================
(declare-sort Concept 0)
(declare-fun in_concepts_R       (Concept) Bool)
(declare-fun in_concepts_R_prime (Concept) Bool)
(declare-fun leq_R               (Concept Concept) Bool)
(declare-fun leq_R_prime         (Concept Concept) Bool)
(declare-fun disjoint_R          (Concept Concept) Bool)
(declare-fun disjoint_R_prime    (Concept Concept) Bool)

; ============================================================
; KGE000 axioms (R and R')
; ============================================================
(assert (forall ((c Concept)) (leq_R c c)))
(assert (forall ((a Concept) (b Concept) (c Concept))
    (=> (and (leq_R a b) (leq_R b c)) (leq_R a c))))
(assert (forall ((a Concept) (b Concept))
    (=> (disjoint_R a b) (disjoint_R b a))))
(assert (forall ((c Concept)) (not (disjoint_R c c))))
(assert (forall ((a Concept) (b Concept) (z Concept))
    (=> (and (disjoint_R a b) (leq_R z a) (leq_R z b))
        false)))

(assert (forall ((c Concept)) (leq_R_prime c c)))
(assert (forall ((a Concept) (b Concept) (c Concept))
    (=> (and (leq_R_prime a b) (leq_R_prime b c)) (leq_R_prime a c))))
(assert (forall ((a Concept) (b Concept))
    (=> (disjoint_R_prime a b) (disjoint_R_prime b a))))
(assert (forall ((c Concept)) (not (disjoint_R_prime c c))))
(assert (forall ((a Concept) (b Concept) (z Concept))
    (=> (and (disjoint_R_prime a b) (leq_R_prime z a) (leq_R_prime z b))
        false)))

; ============================================================
; MONO000 closure axioms: R-facts propagate to R'
; ============================================================
(assert (forall ((c Concept))
    (=> (in_concepts_R c) (in_concepts_R_prime c))))
(assert (forall ((a Concept) (b Concept))
    (=> (leq_R a b) (leq_R_prime a b))))
(assert (forall ((a Concept) (b Concept))
    (=> (disjoint_R a b) (disjoint_R_prime a b))))

; ============================================================
; Concrete constants for KGC808
; ============================================================
(declare-fun gn_europe  () Concept)
(declare-fun gn_germany () Concept)
(declare-fun gn_usa     () Concept)
(declare-fun gn_china   () Concept)
; ============================================================
; R-facts: Germany below Europe.
; ============================================================
(assert (in_concepts_R gn_europe))
(assert (in_concepts_R gn_germany))
(assert (leq_R gn_germany gn_europe))

; ============================================================
; R' extension: irrelevant disjointness fact on two R'-only concepts.
; ============================================================
(assert (in_concepts_R_prime gn_usa))
(assert (not (in_concepts_R gn_usa)))
(assert (in_concepts_R_prime gn_china))
(assert (not (in_concepts_R gn_china)))
(assert (disjoint_R_prime gn_usa gn_china))

; ============================================================
; Distinctness
; ============================================================
(assert (distinct gn_europe gn_germany gn_usa gn_china))

; ============================================================
; Witness search: hypothetical x in [c_haspart(germany)]_R but not in
; [c_haspart(germany)]_R'. In SMT terms: leq_R(germany, x) AND NOT
; leq_R_prime(germany, x). Note the variable is on the right-hand
; side of leq, vs. the left in KGC806/807.
; Closure axiom extension_leq forces contradiction.
; Expected: unsat.
; ============================================================
(declare-fun x () Concept)
(assert (leq_R gn_germany x))
(assert (not (leq_R_prime gn_germany x)))
(check-sat)
(exit)
